
Gurobi 13.0.1 (linux64) logging started Thu Mar 26 02:49:19 2026

Set parameter LogFile to value "logs_sparse/50B_6F_robust_gamma_0d15_theta_0d05199999999999999_2026-03-26_02h49m05s.log"
Set parameter MIPGap to value 0.005
Set parameter OptimalityTol to value 0.005
Gurobi Optimizer version 13.0.1 build v13.0.1rc0 (linux64 - "Linux Mint 22")

CPU model: 12th Gen Intel(R) Core(TM) i7-12700, instruction set [SSE2|AVX|AVX2]
Thread count: 20 physical cores, 20 logical processors, using up to 20 threads

Non-default parameters:
TimeLimit  3600
SoftMemLimit  12
MIPGap  0.005
OptimalityTol  0.005

Optimize a model with 60351 rows, 780571 columns and 2406497 nonzeros (Max)
Model fingerprint: 0xf141efea
Model has 735061 linear objective coefficients
Variable types: 15571 continuous, 765000 integer (765000 binary)
Coefficient statistics:
  Matrix range     [3e-05, 1e+05]
  Objective range  [1e+00, 3e+03]
  Bounds range     [1e+00, 1e+05]
  RHS range        [8e-03, 1e+05]

Presolve removed 31036 rows and 564142 columns
Presolve time: 1.37s
Presolved: 29315 rows, 216429 columns, 690965 nonzeros
Variable types: 7521 continuous, 208908 integer (208908 binary)
Found heuristic solution: objective -3.92159e+08
Found heuristic solution: objective -3.87980e+08
Deterministic concurrent LP optimizer: primal simplex, dual simplex, and barrier
Showing barrier log only...

Root barrier log...

Ordering time: 0.41s

Barrier statistics:
 AA' NZ     : 4.006e+05
 Factor NZ  : 3.152e+06 (roughly 120 MB of memory)
 Factor Ops : 6.047e+08 (less than 1 second per iteration)
 Threads    : 18

                  Objective                Residual
Iter       Primal          Dual         Primal    Dual     Compl     Time
   0  -7.11672701e+11  1.05056706e+09  9.83e+06 5.12e+02  9.68e+06     3s
   1  -6.30568432e+10  1.69479550e+09  8.73e+05 6.63e+02  8.75e+05     3s
   2  -1.52237122e+09  1.40836408e+09  2.15e+04 1.95e+02  2.53e+04     3s
   3  -3.46298909e+07  9.78055100e+08  1.75e+03 5.28e+01  3.72e+03     3s
   4   9.09552241e+07  3.67300102e+08  2.83e+02 7.92e+00  7.91e+02     3s
   5   1.06052210e+08  2.78989528e+08  1.11e+02 4.93e+00  4.53e+02     3s
   6   1.11263248e+08  2.11115904e+08  5.72e+01 2.79e+00  2.56e+02     3s
   7   1.14922926e+08  1.78963776e+08  2.17e+01 1.81e+00  1.56e+02     3s
   8   1.16044572e+08  1.43040036e+08  1.25e+01 7.30e-01  6.66e+01     3s
   9   1.16807586e+08  1.33459779e+08  6.22e+00 5.66e-01  4.03e+01     3s
  10   1.16855546e+08  1.27756078e+08  5.88e+00 2.78e-01  2.67e+01     3s
  11   1.17470467e+08  1.22224454e+08  1.91e+00 1.05e-01  1.12e+01     3s
  12   1.17667689e+08  1.19486085e+08  9.64e-01 3.50e-02  4.20e+00     3s
  13   1.17840945e+08  1.18753198e+08  3.04e-01 1.68e-02  2.08e+00     3s
  14   1.17863025e+08  1.18471520e+08  2.61e-01 1.04e-02  1.38e+00     3s
  15   1.17955677e+08  1.18235515e+08  8.35e-02 4.69e-03  6.36e-01     3s
  16   1.17982480e+08  1.18117815e+08  4.13e-02 2.24e-03  3.07e-01     3s
  17   1.17998178e+08  1.18074101e+08  1.93e-02 1.21e-03  1.72e-01     3s
  18   1.18002513e+08  1.18051017e+08  1.40e-02 7.27e-04  1.10e-01     3s
  19   1.18010213e+08  1.18038906e+08  5.20e-03 4.77e-04  6.51e-02     3s
  20   1.18011495e+08  1.18031135e+08  3.82e-03 3.14e-04  4.45e-02     3s
  21   1.18013500e+08  1.18025765e+08  2.05e-03 1.99e-04  2.78e-02     3s
  22   1.18013811e+08  1.18024605e+08  1.70e-03 1.76e-04  2.45e-02     3s
  23   1.18014666e+08  1.18022366e+08  8.69e-04 1.31e-04  1.75e-02     4s
  24   1.18015078e+08  1.18020720e+08  5.61e-04 9.85e-05  1.28e-02     4s
  25   1.18015374e+08  1.18019875e+08  3.37e-04 8.09e-05  1.02e-02     4s
  26   1.18015482e+08  1.18018411e+08  2.29e-04 5.10e-05  6.65e-03     4s
  27   1.18015600e+08  1.18017573e+08  1.46e-04 3.41e-05  4.48e-03     4s
  28   1.18015681e+08  1.18016663e+08  8.92e-05 1.58e-05  2.23e-03     4s
  29   1.18015754e+08  1.18016407e+08  4.69e-05 1.09e-05  1.48e-03     4s
  30   1.18015794e+08  1.18016158e+08  2.29e-05 5.77e-06  8.24e-04     4s
  31   1.18015822e+08  1.18016052e+08  1.13e-05 3.72e-06  5.21e-04     4s
  32   1.18015830e+08  1.18015952e+08  8.02e-06 1.73e-06  2.77e-04     4s
  33   1.18015840e+08  1.18015903e+08  4.31e-06 8.47e-07  1.41e-04     4s
  34   1.18015847e+08  1.18015872e+08  2.21e-06 2.72e-07  5.69e-05     4s
  35   1.18015853e+08  1.18015865e+08  5.91e-07 1.54e-07  2.68e-05     4s
  36   1.18015855e+08  1.18015861e+08  1.99e-07 7.69e-08  1.32e-05     4s
  37   1.18015855e+08  1.18015856e+08  4.56e-07 4.11e-09  1.40e-06     4s
  38   1.18015856e+08  1.18015856e+08  6.78e-09 5.55e-11  1.80e-08     4s
  39   1.18015856e+08  1.18015856e+08  1.14e-07 6.09e-11  2.66e-09     4s

Barrier solved model in 39 iterations and 4.21 seconds (6.08 work units)
Optimal objective 1.18015856e+08


Root simplex log...

Iteration    Objective       Primal Inf.    Dual Inf.      Time
   17449    1.1801586e+08   0.000000e+00   4.164486e+05      5s
   25031    1.1801586e+08   0.000000e+00   0.000000e+00      7s
Crossover time: 2.46 seconds (2.79 work units)
Concurrent spin time: 0.08s

Solved with barrier

Root relaxation: objective 1.180159e+08, 25031 iterations, 4.96 seconds (5.91 work units)

    Nodes    |    Current Node    |     Objective Bounds      |     Work
 Expl Unexpl |  Obj  Depth IntInf | Incumbent    BestBd   Gap | It/Node Time

     0     0 1.1802e+08    0 4082 -3.880e+08 1.1802e+08   130%     -    7s
H    0     0                    -1.28410e+08 1.1802e+08   192%     -    9s
H    0     0                    -8.11581e+07 1.1802e+08   245%     -   10s
H    0     0                    -7.33912e+07 1.1802e+08   261%     -   16s
H    0     0                    -6.03447e+07 1.1802e+08   296%     -   16s
H    0     0                    9.519898e+07 1.1802e+08  24.0%     -   19s
H    0     0                    9.625985e+07 1.1802e+08  22.6%     -   19s
     0     0 1.1802e+08    0 4454 9.6260e+07 1.1802e+08  22.6%     -   75s
H    0     0                    9.626736e+07 1.1802e+08  22.6%     -   81s
H    0     0                    9.708396e+07 1.1802e+08  21.6%     -   84s
H    0     0                    9.765701e+07 1.1802e+08  20.8%     -   89s
H    0     0                    9.770223e+07 1.1802e+08  20.8%     -   95s
H    0     0                    9.770267e+07 1.1802e+08  20.8%     -  101s
H    0     0                    9.869201e+07 1.1802e+08  19.6%     -  101s
H    0     0                    1.000510e+08 1.1802e+08  18.0%     -  102s
H    0     0                    1.000951e+08 1.1802e+08  17.9%     -  104s
H    0     0                    1.000955e+08 1.1802e+08  17.9%     -  104s
H    0     0                    1.006752e+08 1.1802e+08  17.2%     -  109s
H    0     0                    1.008999e+08 1.1802e+08  17.0%     -  109s
H    0     0                    1.009000e+08 1.1802e+08  17.0%     -  116s
H    0     0                    1.009449e+08 1.1802e+08  16.9%     -  126s
H    0     0                    1.015008e+08 1.1802e+08  16.3%     -  126s
H    0     0                    1.016837e+08 1.1802e+08  16.1%     -  136s
H    0     0                    1.018056e+08 1.1802e+08  15.9%     -  136s
H    0     0                    1.018056e+08 1.1802e+08  15.9%     -  149s
H    0     0                    1.018056e+08 1.1802e+08  15.9%     -  163s
     0     0 1.1802e+08    0 4399 1.0181e+08 1.1802e+08  15.9%     -  171s
     0     0 1.1802e+08    0 5503 1.0181e+08 1.1802e+08  15.9%     -  251s
H    0     0                    1.020396e+08 1.1802e+08  15.7%     -  254s
H    0     0                    1.042827e+08 1.1802e+08  13.2%     -  254s
H    0     0                    1.044217e+08 1.1802e+08  13.0%     -  255s
H    0     0                    1.046575e+08 1.1802e+08  12.8%     -  255s
     0     0 1.1802e+08    0 5560 1.0466e+08 1.1802e+08  12.8%     -  259s
     0     0 1.1802e+08    0 5620 1.0466e+08 1.1802e+08  12.8%     -  320s
     0     0 1.1802e+08    0 5685 1.0466e+08 1.1802e+08  12.8%     -  323s
     0     0 1.1802e+08    0 6168 1.0466e+08 1.1802e+08  12.8%     -  385s
     0     0 1.1802e+08    0 6168 1.0466e+08 1.1802e+08  12.8%     -  386s
     0     0 1.1802e+08    0 5669 1.0466e+08 1.1802e+08  12.8%     -  388s
H    0     0                    1.061752e+08 1.1802e+08  11.2%     -  421s
H    0     0                    1.061901e+08 1.1802e+08  11.1%     -  428s
H    0     0                    1.061908e+08 1.1802e+08  11.1%     -  440s
H    0     0                    1.068111e+08 1.1802e+08  10.5%     -  443s
H    0     0                    1.072934e+08 1.1802e+08  10.0%     -  445s
H    0     0                    1.074153e+08 1.1802e+08  9.87%     -  461s
H    0     0                    1.074609e+08 1.1802e+08  9.82%     -  461s
H    0     0                    1.075577e+08 1.1802e+08  9.72%     -  632s
H    0     0                    1.104117e+08 1.1802e+08  6.89%     -  633s
H    0     0                    1.104145e+08 1.1802e+08  6.88%     -  634s
H    0     0                    1.104159e+08 1.1802e+08  6.88%     -  637s
H    0     2                    1.170646e+08 1.1802e+08  0.81%     -  709s
     0     2 1.1802e+08    0 5669 1.1706e+08 1.1802e+08  0.81%     -  709s
     1     4 1.1802e+08    1 5807 1.1706e+08 1.1802e+08  0.81%  2764  775s
H    2     4                    1.170656e+08 1.1802e+08  0.81%  1382  775s
     3     8 1.1802e+08    2 5823 1.1707e+08 1.1802e+08  0.81% 12408  804s
     7    16 1.1802e+08    3 5623 1.1707e+08 1.1802e+08  0.81% 20381  833s
    15    26 1.1801e+08    4 5577 1.1707e+08 1.1802e+08  0.81% 16300 1352s
H   25    43                    1.171356e+08 1.1802e+08  0.75% 70559 1578s
H   29    43                    1.171899e+08 1.1802e+08  0.70% 70711 1578s
H   35    43                    1.172044e+08 1.1802e+08  0.69% 70339 1578s
H   38    43                    1.172990e+08 1.1802e+08  0.61% 70313 1578s
    42   235 1.1801e+08    6 5281 1.1730e+08 1.1802e+08  0.61% 69987 1879s
H  145   235                    1.173921e+08 1.1802e+08  0.53% 24674 1879s
H  175   235                    1.175093e+08 1.1802e+08  0.43% 21192 1879s

Cutting planes:
  Gomory: 4
  MIR: 28
  Flow cover: 90
  Zero half: 2
  RLT: 3136
  Relax-and-lift: 36

Explored 234 nodes (4540701 simplex iterations) in 1880.02 seconds (2561.25 work units)
Thread count was 20 (of 20 available processors)

Solution count 10: 1.17509e+08 1.17392e+08 1.17299e+08 ... 1.10415e+08

Optimal solution found (tolerance 5.00e-03)
Best objective 1.175092924037e+08, best bound 1.180150959193e+08, gap 0.4304%
